     Program PWSCF v.6.7MaX starts on 13May2021 at 11:56:18

     K-points division:     npool     =       2
     R & G space division:  proc/nbgrp/npool/nimage =       4
     Reading input from input.pwi

     Current dimensions of program PWSCF are:
     Max number of different atomic species (ntypx) = 10
     Max number of k-points (npk) =  40000
     Max angular momentum in pseudopotentials (lmaxx) =  3
     file Fe.pbe-nd-rrkjus.UPF: wavefunction(s)  4S renormalized

     Subspace diagonalization in iterative solution of the eigenvalue problem:
     a serial algorithm will be used

     Found symmetry operation: I + (  0.0000 -0.3333  0.0000)
     This is a supercell, fractional translations are disabled

     Using Slab Decomposition

     bravais-lattice index     =            8
     lattice parameter (alat)  =      26.9285  a.u.
     unit-cell volume          =   28118.8024 (a.u.)^3
     number of atoms/cell      =          120
     number of atomic types    =            1
     number of electrons       =       960.00
     number of Kohn-Sham states=         1000
     kinetic-energy cutoff     =      40.0000  Ry
     charge density cutoff     =     320.0000  Ry
     scf convergence threshold =      1.0E-08
     mixing beta               =       0.2000
     number of iterations used =            8  local-TF  mixing
     Exchange-correlation=  SLA  PW   PBE  PBE
                           (   1   4   3   4   0   0   0)

     GPU acceleration is ACTIVE.

     celldm(1)=  26.928455  celldm(2)=   0.848528  celldm(3)=   1.697056
     celldm(4)=   0.000000  celldm(5)=   0.000000  celldm(6)=   0.000000

     crystal axes: (cart. coord. in units of alat)
               a(1) = (   1.000000   0.000000   0.000000 )
               a(2) = (   0.000000   0.848528   0.000000 )
               a(3) = (   0.000000   0.000000   1.697056 )

     reciprocal axes: (cart. coord. in units 2 pi/alat)
               b(1) = (  1.000000  0.000000  0.000000 )
               b(2) = (  0.000000  1.178511  0.000000 )
               b(3) = (  0.000000  0.000000  0.589256 )

     PseudoPot. # 1 for Fe read from file:
     /m100/home/userexternal/speeters/pseudo/Fe.pbe-nd-rrkjus.UPF
     MD5 check sum: 238be4546fc64e07464dd81e49eee3ad
     Pseudo is Ultrasoft + core correction, Zval =  8.0
     Generated by new atomic code, or converted to UPF format
     Using radial grid of  957 points,  6 beta functions with:
                l(1) =   0
                l(2) =   0
                l(3) =   1
                l(4) =   1
                l(5) =   2
                l(6) =   2
     Q(r) pseudized with 0 coefficients

     atomic species   valence    mass     pseudopotential
        Fe             8.00    55.84500     Fe( 1.00)

     Starting magnetic structure
     atomic species   magnetization
        Fe           1.000

     No symmetry found

   Cartesian axes

     site n.     atom                  positions (alat units)
         1           Fe  tau(   1) = (   1.0000053   0.4242669   0.5635468  )
         2           Fe  tau(   2) = (   1.0000053   0.1414226   0.5635468  )
         3           Fe  tau(   3) = (   1.0000053   0.7071115   0.5635468  )
         4           Fe  tau(   4) = (   0.9000047   0.5656889   0.5635468  )
         5           Fe  tau(   5) = (   0.9000047   0.2828446   0.5635468  )
         6           Fe  tau(   6) = (   0.9000047   0.8485336   0.5635468  )
         7           Fe  tau(   7) = (   0.8000042   0.4242669   0.5635468  )
         8           Fe  tau(   8) = (   0.8000042   0.1414226   0.5635468  )
         9           Fe  tau(   9) = (   0.8000042   0.7071115   0.5635468  )
        10           Fe  tau(  10) = (   0.7000037   0.5656889   0.5635468  )
        11           Fe  tau(  11) = (   0.7000037   0.2828446   0.5635468  )
        12           Fe  tau(  12) = (   0.7000037   0.8485336   0.5635468  )
        13           Fe  tau(  13) = (   0.6000032   0.4242669   0.5635468  )
        14           Fe  tau(  14) = (   0.6000032   0.1414226   0.5635468  )
        15           Fe  tau(  15) = (   0.6000032   0.7071115   0.5635468  )
        16           Fe  tau(  16) = (   0.5000026   0.5656889   0.5635468  )
        17           Fe  tau(  17) = (   0.5000026   0.2828446   0.5635468  )
        18           Fe  tau(  18) = (   0.5000026   0.8485336   0.5635468  )
        19           Fe  tau(  19) = (   0.4000021   0.4242669   0.5635468  )
        20           Fe  tau(  20) = (   0.4000021   0.1414226   0.5635468  )
        21           Fe  tau(  21) = (   0.4000021   0.7071115   0.5635468  )
        22           Fe  tau(  22) = (   0.3000016   0.5656889   0.5635468  )
        23           Fe  tau(  23) = (   0.3000016   0.2828446   0.5635468  )
        24           Fe  tau(  24) = (   0.3000016   0.8485336   0.5635468  )
        25           Fe  tau(  25) = (   0.2000011   0.4242669   0.5635468  )
        26           Fe  tau(  26) = (   0.2000011   0.1414226   0.5635468  )
        27           Fe  tau(  27) = (   0.2000011   0.7071115   0.5635468  )
        28           Fe  tau(  28) = (   0.1000005   0.5656889   0.5635468  )
        29           Fe  tau(  29) = (   0.1000005   0.2828446   0.5635468  )
        30           Fe  tau(  30) = (   0.1000005   0.8485336   0.5635468  )
        31           Fe  tau(  31) = (   0.9000047   0.4242669   0.4221250  )
        32           Fe  tau(  32) = (   0.9000047   0.1414226   0.4221250  )
        33           Fe  tau(  33) = (   0.9000047   0.7071115   0.4221250  )
        34           Fe  tau(  34) = (   0.8000042   0.5656889   0.4221250  )
        35           Fe  tau(  35) = (   0.8000042   0.2828446   0.4221250  )
        36           Fe  tau(  36) = (   0.8000042   0.8485336   0.4221250  )
        37           Fe  tau(  37) = (   0.7000037   0.4242669   0.4221250  )
        38           Fe  tau(  38) = (   0.7000037   0.1414226   0.4221250  )
        39           Fe  tau(  39) = (   0.7000037   0.7071115   0.4221250  )
        40           Fe  tau(  40) = (   0.6000032   0.5656889   0.4221250  )
        41           Fe  tau(  41) = (   0.6000032   0.2828446   0.4221250  )
        42           Fe  tau(  42) = (   0.6000032   0.8485336   0.4221250  )
        43           Fe  tau(  43) = (   0.5000026   0.4242669   0.4221250  )
        44           Fe  tau(  44) = (   0.5000026   0.1414226   0.4221250  )
        45           Fe  tau(  45) = (   0.5000026   0.7071115   0.4221250  )
        46           Fe  tau(  46) = (   0.4000021   0.5656889   0.4221250  )
        47           Fe  tau(  47) = (   0.4000021   0.2828446   0.4221250  )
        48           Fe  tau(  48) = (   0.4000021   0.8485336   0.4221250  )
        49           Fe  tau(  49) = (   0.3000016   0.4242669   0.4221250  )
        50           Fe  tau(  50) = (   0.3000016   0.1414226   0.4221250  )
        51           Fe  tau(  51) = (   0.3000016   0.7071115   0.4221250  )
        52           Fe  tau(  52) = (   0.2000011   0.5656889   0.4221250  )
        53           Fe  tau(  53) = (   0.2000011   0.2828446   0.4221250  )
        54           Fe  tau(  54) = (   0.2000011   0.8485336   0.4221250  )
        55           Fe  tau(  55) = (   0.1000005   0.4242669   0.4221250  )
        56           Fe  tau(  56) = (   0.1000005   0.1414226   0.4221250  )
        57           Fe  tau(  57) = (   0.1000005   0.7071115   0.4221250  )
        58           Fe  tau(  58) = (   0.0000000   0.5656889   0.4221250  )
        59           Fe  tau(  59) = (   0.0000000   0.2828446   0.4221250  )
        60           Fe  tau(  60) = (   0.0000000   0.8485336   0.4221250  )
[...]
       106           Fe  tau( 106) = (   0.4000021   0.5656889   0.1392814  )
       107           Fe  tau( 107) = (   0.4000021   0.2828446   0.1392814  )
       108           Fe  tau( 108) = (   0.4000021   0.8485336   0.1392814  )
       109           Fe  tau( 109) = (   0.3000016   0.4242669   0.1392814  )
       110           Fe  tau( 110) = (   0.3000016   0.1414226   0.1392814  )
       111           Fe  tau( 111) = (   0.3000016   0.7071115   0.1392814  )
       112           Fe  tau( 112) = (   0.2000011   0.5656889   0.1392814  )
       113           Fe  tau( 113) = (   0.2000011   0.2828446   0.1392814  )
       114           Fe  tau( 114) = (   0.2000011   0.8485336   0.1392814  )
       115           Fe  tau( 115) = (   0.1000005   0.4242669   0.1392814  )
       116           Fe  tau( 116) = (   0.1000005   0.1414226   0.1392814  )
       117           Fe  tau( 117) = (   0.1000005   0.7071115   0.1392814  )
       118           Fe  tau( 118) = (   0.0000000   0.5656889   0.1392814  )
       119           Fe  tau( 119) = (   0.0000000   0.2828446   0.1392814  )
       120           Fe  tau( 120) = (   0.0000000   0.8485336   0.1392814  )

     number of k points=     4  Gaussian smearing, width (Ry)=  0.0200
                       cart. coord. in units 2pi/alat
        k(    1) = (   0.0000000   0.0000000   0.0000000), wk =   0.2500000
        k(    2) = (   0.0000000  -0.5892557   0.0000000), wk =   0.2500000
        k(    3) = (  -0.5000000   0.0000000   0.0000000), wk =   0.2500000
        k(    4) = (  -0.5000000  -0.5892557   0.0000000), wk =   0.2500000

     Check: negative core charge=   -0.000016
     Generating pointlists ...
     new r_m :   0.0714 (alat units)  1.9239 (a.u.) for type    1

     Initial potential from superposition of free atoms

     starting charge  959.92391, renormalised to  960.00000

     negative rho (up, down):  1.652E-03 1.536E-14
     Starting wfcs are  720 randomized atomic wfcs +  280 random wfcs

     Self-consistent Calculation

     iteration #  1     ecut=    40.00 Ry     beta= 0.20
     Davidson diagonalization with overlap
     ethr =  1.00E-02,  avg # of iterations =  7.5

     negative rho (up, down):  7.631E-04 3.371E-05

     total energy              =   -6668.51453824 Ry
     estimated scf accuracy    <      88.02859628 Ry

     total magnetization       =   447.18 Bohr mag/cell
     absolute magnetization    =   447.57 Bohr mag/cell

[...]

     iteration #  5     ecut=    40.00 Ry     beta= 0.20
     Davidson diagonalization with overlap
     c_bands:  1 eigenvalues not converged
     ethr =  5.87E-04,  avg # of iterations =  7.1

[...]

     iteration #  8     ecut=    40.00 Ry     beta= 0.20
     Davidson diagonalization with overlap
     c_bands:  1 eigenvalues not converged
     ethr =  4.48E-05,  avg # of iterations = 15.5

[...]

     Magnetic moment per site:
     atom:    1    charge:    6.3867    magn:    2.7334    constr:    0.0000
     atom:    2    charge:    6.3867    magn:    2.7333    constr:    0.0000
     atom:    3    charge:    6.3867    magn:    2.7334    constr:    0.0000
     atom:    4    charge:    6.3871    magn:    2.7334    constr:    0.0000
     atom:    5    charge:    6.3871    magn:    2.7334    constr:    0.0000
     atom:    6    charge:    6.3872    magn:    2.7334    constr:    0.0000
     atom:    7    charge:    6.3867    magn:    2.7334    constr:    0.0000
     atom:    8    charge:    6.3867    magn:    2.7334    constr:    0.0000
[...]
    -0.2682  -0.2682  -0.2682  -0.2682  -0.0729  -0.0729  -0.0729  -0.0729
    -0.0423  -0.0423  -0.0423  -0.0423  -0.0112  -0.0112  -0.0112  -0.0112
    -0.0029  -0.0029  -0.0029  -0.0029   0.0294   0.0294   0.0294   0.0294
     0.0773   0.0773   0.0774   0.0775   0.0832   0.0832   0.0833   0.0833
     0.1227   0.1227   0.1231   0.1231   0.1738   0.1738   0.1739   0.1739
     0.1855   0.1855   0.1855   0.1855   0.2004   0.2004   0.2006   0.2006
     0.2228   0.2228   0.2229   0.2229   0.2718   0.2718   0.2718   0.2718
     0.2944   0.2945   0.2945   0.2945   0.3152   0.3152   0.3152   0.3153
     0.3162   0.3162   0.3163   0.3163   0.3385   0.3385   0.3385   0.3385
     0.3775   0.3775   0.3778   0.3778   0.4018   0.4018   0.4019   0.4019
     0.4454   0.4454   0.4455   0.4456   0.4533   0.4533   0.4534   0.4534
     0.4585   0.4585   0.4585   0.4585   0.5032   0.5032   0.5033   0.5033
     0.5068   0.5068   0.5069   0.5069   0.5273   0.5273   0.5275   0.5275
     0.6648   0.6648   0.6648   0.6648   0.6705   0.6705   0.6706   0.6706
     0.6952   0.6952   0.6952   0.6953   0.7339   0.7339   0.7339   0.7339
     0.7481   0.7482   0.7482   0.7482   0.7521   0.7521   0.7521   0.7521
     0.7826   0.7827   0.7829   0.7829   0.7900   0.7901   0.7902   0.7902
     0.8482   0.8482   0.8483   0.8483   0.8873   0.8873   0.8873   0.8873
     0.9227   0.9227   0.9228   0.9228   0.9671   0.9671   0.9671   0.9671
     0.9786   0.9786   0.9786   0.9786   0.9841   0.9841   0.9841   0.9842
     1.0369   1.0369   1.0370   1.0370   1.0681   1.0681   1.0682   1.0682
     1.1262   1.1262   1.1262   1.1262   1.1315   1.1315   1.1316   1.1316
     1.1439   1.1439   1.1439   1.1439   1.1529   1.1530   1.1530   1.1530
     1.1734   1.1734   1.1734   1.1734   1.2283   1.2283   1.2284   1.2284
     1.2707   1.2707   1.2708   1.2708   1.3456   1.3456   1.3456   1.3456
     1.4108   1.4108   1.4108   1.4108   1.4227   1.4227   1.4228   1.4228
     1.4720   1.4720   1.4721   1.4721   1.5049   1.5050   1.5050   1.5050
     1.5578   1.5578   1.5578   1.5578   1.7572   1.7573   1.7573   1.7573
     1.9303   1.9303   1.9303   1.9303   2.0166   2.0166   2.0166   2.0166
     2.0341   2.0341   2.0342   2.0342   2.0658   2.0659   2.0659   2.0659
     2.1039   2.1040   2.1043   2.1043   2.1091   2.1091   2.1091   2.1091
     2.1539   2.1539   2.1539   2.1539   2.2018   2.2018   2.2018   2.2018
     2.2462   2.2462   2.2463   2.2463   2.3503   2.3503   2.3504   2.3504
     2.3900   2.3901   2.3901   2.3901   2.4662   2.4662   2.4662   2.4662
     2.5117   2.5117   2.5118   2.5118   2.5616   2.5616   2.5616   2.5616
     2.5659   2.5659   2.5660   2.5660   2.6609   2.6609   2.6609   2.6609
     2.6758   2.6758   2.6758   2.6758   2.6789   2.6789   2.6789   2.6790
     2.7186   2.7186   2.7188   2.7188   2.7550   2.7550   2.7550   2.7550
     2.7702   2.7702   2.7704   2.7704   2.7832   2.7832   2.7832   2.7832
     2.8042   2.8042   2.8043   2.8043   2.8661   2.8661   2.8662   2.8662
     2.8663   2.8663   2.8664   2.8664   2.8748   2.8748   2.8748   2.8748
     2.8945   2.8945   2.8945   2.8945   2.9329   2.9329   2.9330   2.9330
     2.9491   2.9491   2.9493   2.9493   2.9521   2.9521   2.9521   2.9521
     2.9875   2.9875   2.9875   2.9875   2.9974   2.9974   2.9974   2.9974
[...]
    11.3223  11.3225  11.3229  11.3231  11.4212  11.4212  11.4224  11.4224
    11.4759  11.4759  11.4760  11.4760  11.5413  11.5413  11.5414  11.5414
    11.5849  11.5849  11.5850  11.5850  11.6009  11.6009  11.6009  11.6009
    11.6595  11.6595  11.6595  11.6595  11.8451  11.8451  11.8451  11.8452
    11.8630  11.8630  11.8631  11.8631  12.0407  12.0407  12.0408  12.0408
    12.0512  12.0519  12.0522  12.0538  12.1332  12.1332  12.1333  12.1333
    12.1595  12.1595  12.1595  12.1595  12.2135  12.2135  12.2136  12.2136
    12.2983  12.2988  12.2990  12.2996  12.3200  12.3200  12.3206  12.3206
    12.3657  12.3658  12.3658  12.3658  12.3845  12.3845  12.3845  12.3845
    12.5841  12.5842  12.5842  12.5842  12.8404  12.8404  12.8416  12.8416
    12.8982  12.8982  12.8983  12.8983  12.9096  12.9096  12.9096  12.9096
    12.9856  12.9856  12.9856  12.9856  13.0952  13.0952  13.0952  13.0952
    13.1545  13.1545  13.1546  13.1546  13.1607  13.1608  13.1608  13.1608
    13.1726  13.1726  13.1726  13.1726  13.2005  13.2005  13.2005  13.2005
    13.3737  13.3739  13.3749  13.3756  13.4947  13.4947  13.4947  13.4947

     the Fermi energy is     1.3495 ev

!    total energy              =   -6692.99645617 Ry
     estimated scf accuracy    <          7.7E-11 Ry
     smearing contrib. (-TS)   =      -0.31800841 Ry
     internal energy E=F+TS    =   -6692.67844775 Ry

     The total energy is F=E-TS. E is the sum of the following terms:
     one-electron contribution =  -63992.20634547 Ry
     hartree contribution      =   32805.57982357 Ry
     xc contribution           =   -3173.44935014 Ry
     ewald contribution        =   27667.39742429 Ry

     total magnetization       =   313.45 Bohr mag/cell
     absolute magnetization    =   328.98 Bohr mag/cell

     convergence has been achieved in  10 iterations

     negative rho (up, down):  1.001E-03 1.994E-04

     Forces acting on atoms (cartesian axes, Ry/au):

     atom    1 type  1   force =    -0.00000275    0.00000079    0.00026472
     atom    2 type  1   force =    -0.00000293    0.00000198    0.00026493
     atom    3 type  1   force =    -0.00000275   -0.00000166    0.00026521
     atom    4 type  1   force =    -0.00000233   -0.00000034    0.00028720
     atom    5 type  1   force =    -0.00000247    0.00000158    0.00028725
     atom    6 type  1   force =    -0.00000243   -0.00000232    0.00028723
     atom    7 type  1   force =    -0.00000130    0.00000065    0.00026512
     atom    8 type  1   force =    -0.00000126    0.00000184    0.00026516
     atom    9 type  1   force =    -0.00000095   -0.00000161    0.00026558
     atom   10 type  1   force =    -0.00000101   -0.00000043    0.00028691
     atom   11 type  1   force =    -0.00000109    0.00000146    0.00028721
     atom   12 type  1   force =    -0.00000093   -0.00000215    0.00028696
     atom   13 type  1   force =     0.00000004    0.00000056    0.00026465
     atom   14 type  1   force =     0.00000014    0.00000222    0.00026464
     atom   15 type  1   force =     0.00000010   -0.00000174    0.00026493
     atom   16 type  1   force =    -0.00000063   -0.00000043    0.00028644
     atom   17 type  1   force =    -0.00000039    0.00000162    0.00028694
     atom   18 type  1   force =    -0.00000047   -0.00000218    0.00028677
     atom   19 type  1   force =     0.00000052    0.00000084    0.00026449
     atom   20 type  1   force =     0.00000056    0.00000212    0.00026472
     atom   21 type  1   force =     0.00000040   -0.00000190    0.00026481
     atom   22 type  1   force =     0.00000024   -0.00000025    0.00028676
     atom   23 type  1   force =     0.00000053    0.00000191    0.00028731
     atom   24 type  1   force =     0.00000025   -0.00000231    0.00028703
     atom   25 type  1   force =     0.00000208    0.00000100    0.00026495
     atom   26 type  1   force =     0.00000196    0.00000201    0.00026530
     atom   27 type  1   force =     0.00000195   -0.00000177    0.00026525
     atom   28 type  1   force =     0.00000223   -0.00000023    0.00028726
     atom   29 type  1   force =     0.00000207    0.00000178    0.00028759
     atom   30 type  1   force =     0.00000195   -0.00000237    0.00028761
     atom   31 type  1   force =    -0.00000073    0.00000061    0.00005435
     atom   32 type  1   force =    -0.00000102    0.00000047    0.00005444
     atom   33 type  1   force =    -0.00000077   -0.00000220    0.00005419
     atom   34 type  1   force =    -0.00000090   -0.00000036    0.00005386
     atom   35 type  1   force =    -0.00000116    0.00000200    0.00005388
     atom   36 type  1   force =    -0.00000105   -0.00000057    0.00005405
     atom   37 type  1   force =    -0.00000090    0.00000029    0.00005394
     atom   38 type  1   force =    -0.00000079    0.00000055    0.00005403
     atom   39 type  1   force =    -0.00000088   -0.00000216    0.00005376
     atom   40 type  1   force =    -0.00000039   -0.00000042    0.00005343
     atom   41 type  1   force =    -0.00000023    0.00000221    0.00005343
     atom   42 type  1   force =    -0.00000017   -0.00000049    0.00005375
     atom   43 type  1   force =    -0.00000017    0.00000054    0.00005366
     atom   44 type  1   force =     0.00000016    0.00000067    0.00005379
     atom   45 type  1   force =    -0.00000023   -0.00000226    0.00005343
     atom   46 type  1   force =    -0.00000011   -0.00000042    0.00005327
     atom   47 type  1   force =     0.00000022    0.00000242    0.00005333
     atom   48 type  1   force =     0.00000016   -0.00000087    0.00005358
     atom   49 type  1   force =     0.00000085    0.00000085    0.00005360
     atom   50 type  1   force =     0.00000095    0.00000061    0.00005387
     atom   51 type  1   force =     0.00000068   -0.00000247    0.00005345
     atom   52 type  1   force =     0.00000206   -0.00000031    0.00005312
     atom   53 type  1   force =     0.00000204    0.00000248    0.00005322
     atom   54 type  1   force =     0.00000191   -0.00000102    0.00005333
     atom   55 type  1   force =     0.00000193    0.00000081    0.00005383
     atom   56 type  1   force =     0.00000161    0.00000043    0.00005394
     atom   57 type  1   force =     0.00000169   -0.00000241    0.00005354
     atom   58 type  1   force =     0.00000288   -0.00000024    0.00005356
     atom   59 type  1   force =     0.00000256    0.00000218    0.00005357
     atom   60 type  1   force =     0.00000252   -0.00000090    0.00005378
[...]
     atom  106 type  1   force =    -0.00000047   -0.00000025   -0.00028518
     atom  107 type  1   force =    -0.00000004    0.00000192   -0.00028557
     atom  108 type  1   force =    -0.00000021   -0.00000220   -0.00028539
     atom  109 type  1   force =     0.00000055    0.00000048   -0.00024238
     atom  110 type  1   force =     0.00000067    0.00000163   -0.00024276
     atom  111 type  1   force =     0.00000049   -0.00000228   -0.00024261
     atom  112 type  1   force =     0.00000127   -0.00000024   -0.00028595
     atom  113 type  1   force =     0.00000136    0.00000200   -0.00028623
     atom  114 type  1   force =     0.00000126   -0.00000237   -0.00028615
     atom  115 type  1   force =     0.00000211    0.00000056   -0.00024232
     atom  116 type  1   force =     0.00000191    0.00000159   -0.00024261
     atom  117 type  1   force =     0.00000198   -0.00000228   -0.00024256
     atom  118 type  1   force =     0.00000335   -0.00000026   -0.00028560
     atom  119 type  1   force =     0.00000303    0.00000177   -0.00028592
     atom  120 type  1   force =     0.00000294   -0.00000219   -0.00028564

     Total force =     0.002148     Total SCF correction =     0.000011
     Energy error            =      5.2E-06
     Gradient error          =      2.9E-04

     bfgs converged in   5 scf cycles and   4 bfgs steps
     (criteria: energy <  1.0E-04 Ry, force <  1.0E-03 Ry/Bohr)

     End of BFGS Geometry Optimization

     Final energy   =   -6692.9964561677 Ry

     File ./Out/ZDDP.bfgs deleted, as requested
Begin final coordinates

ATOMIC_POSITIONS (angstrom)
Fe           14.2499751742        6.0457711858        8.0281877525
Fe           14.2499761251        2.0152827691        8.0281936760
Fe           14.2499751910       10.0762801176        8.0281884959
Fe           12.8249858353        8.0610253233        8.0282929882
Fe           12.8249867769        4.0305203592        8.0282961921
Fe           12.8249864817       12.0915192131        8.0282995442
Fe           11.3999933916        6.0457720575        8.0281798397
Fe           11.3999935461        2.0152826071        8.0281860673
Fe           11.3999924862       10.0762795701        8.0281807368
Fe            9.9749973596        8.0610258603        8.0282847697
Fe            9.9749977273        4.0305207186        8.0282877301
Fe            9.9749969430       12.0915185607        8.0282913577
Fe            8.5499984387        6.0457723291        8.0281770247
Fe            8.5499974903        2.0152818588        8.0281833764
Fe            8.5499980078       10.0762799409        8.0281783482
Fe            7.1250017182        8.0610260659        8.0282837153
Fe            7.1250006844        4.0305201434        8.0282858908
Fe            7.1250007141       12.0915190612        8.0282897178
Fe            5.7000011781        6.0457714733        8.0281768677
Fe            5.7000002741        2.0152819769        8.0281829538
Fe            5.7000015640       10.0762807961        8.0281783659
Fe            4.2750049451        8.0610259773        8.0282842397
Fe            4.2750040341        4.0305195079        8.0282868484
Fe            4.2750046395       12.0915198166        8.0282906528
Fe            2.8500082816        6.0457708756        8.0281808629
Fe            2.8500085899        2.0152824971        8.0281869308
Fe            2.8500086222       10.0762808922        8.0281822139
Fe            1.4250186486        8.0610254164        8.0282880176
Fe            1.4250194235        4.0305198195        8.0282907089
Fe            1.4250196833       12.0915200801        8.0282944936
Fe           12.8249776108        6.0457716831        6.0244145660
Fe           12.8249782751        2.0152859700        6.0244153646
Fe           12.8249773328       10.0762767249        6.0244150738
Fe           11.3999893118        8.0610257469        6.0245216948
Fe           11.3999898880        4.0305229636        6.0245225200
Fe           11.3999895018       12.0915147909        6.0245221701
Fe            9.9749961110        6.0457723497        6.0244130123
Fe            9.9749956739        2.0152856084        6.0244139739
Fe            9.9749955988       10.0762765081        6.0244135023
Fe            8.5499997482        8.0610260802        6.0245208357
Fe            8.5499991116        4.0305227993        6.0245216092
Fe            8.5499989834       12.0915147628        6.0245211633
Fe            7.1250010363        6.0457718959        6.0244126989
Fe            7.1249999842        2.0152854926        6.0244135205
Fe            7.1250009355       10.0762771979        6.0244131243
Fe            5.7000034071        8.0610261375        6.0245210858
Fe            5.7000022354        4.0305219726        6.0245214026
Fe            5.7000025918       12.0915157012        6.0245211124
Fe            4.2750041781        6.0457709383        6.0244130141
Fe            4.2750039249        2.0152857099        6.0244135733
Fe            4.2750044900       10.0762778222        6.0244137017
Fe            2.8500086077        8.0610258293        6.0245215033
Fe            2.8500083640        4.0305216298        6.0245217510
Fe            2.8500088804       12.0915162598        6.0245216546
Fe            1.4250198601        6.0457709996        6.0244127365
Fe            1.4250206922        2.0152860623        6.0244133960
Fe            1.4250201291       10.0762776434        6.0244134051
Fe            0.0000302771        8.0610255180        6.0245209287
Fe            0.0000311148        4.0305223469        6.0245215264
Fe            0.0000312414       12.0915157518        6.0245211975
[...]
Fe            5.7000044161        8.0610264049        1.9870125593
Fe            5.7000030635        4.0305197569        1.9870104580
Fe            5.7000033590       12.0915198197        1.9870065210
Fe            4.2750041938        6.0457706743        1.9872084155
Fe            4.2750039198        2.0152819904        1.9872024605
Fe            4.2750046915       10.0762806274        1.9872066890
Fe            2.8500066914        8.0610260304        1.9870115358
Fe            2.8500065934        4.0305194736        1.9870087162
Fe            2.8500068506       12.0915204716        1.9870052356
Fe            1.4250130148        6.0457705861        1.9872010274
Fe            1.4250139570        2.0152824175        1.9871946686
Fe            1.4250133444       10.0762804753        1.9871994212
Fe            0.0000215192        8.0610259670        1.9870042348
Fe            0.0000229360        4.0305203702        1.9870016418
Fe            0.0000227009       12.0915198865        1.9869976270
End final coordinates

     Writing output data file ./Out/ZDDP.save/

     General routines
                                        0.88s GPU  (     155 calls)
                                      296.06s GPU  (   95264 calls)

     Parallel routines

   This run was terminated on:  14:38:18  13May2021

   JOB DONE.